p cnf 422 1317
c ind 297 301 322 325 294 303 292 293 329 296 0
c ind 291 300 324 331 326 330 295 323 302 298 0
c ind 332 299 305 304 314 315 312 313 307 309 0
c ind 318 328 308 316 317 327 311 321 310 320 0
c ind 319 306 1 0
c ret 390 391 392 393 394 395 396 397 398 399 0
c ret 400 401 402 403 404 405 406 407 408 409 0
c ret 410 411 412 413 414 415 416 417 418 419 0
c ret 420 333 334 335 336 337 338 339 340 341 0
c ret 342 343 344 345 346 347 348 349 350 351 0
c ret 352 353 354 355 356 357 358 359 360 361 0
c ret 362 363 364 365 366 367 368 369 370 371 0
c ret 372 373 374 375 376 377 378 379 380 381 0
c ret 382 383 384 385 386 387 388 389 0
2 -3 -250 -259 375 0
2 3 -250 -259 -375 0
-2 259 0
-2 3 375 0
-2 250 0
-2 -3 -375 0
3 142 243 0
3 -4 243 0
3 -84 243 0
-3 -243 0
-3 4 84 -142 0
4 5 -78 0
4 -5 19 0
4 5 -21 0
-4 -5 -19 0
-4 5 21 78 0
5 -6 -11 0
-5 6 0
-5 11 0
6 -7 -9 0
-6 7 0
-6 9 0
7 365 -367 0
7 8 -365 367 0
7 -8 -364 365 0
-7 -8 -365 0
-7 8 365 367 0
-7 -365 -367 0
-7 -8 364 367 0
8 366 -368 0
-8 -366 0
-8 368 0
9 -366 367 -368 0
9 10 366 368 0
9 366 -367 -368 0
9 -10 367 -368 0
-9 -366 -367 0
-9 10 366 367 -368 0
-9 -366 368 0
-9 -10 368 0
10 364 365 0
-10 -364 0
-10 -365 0
11 -12 17 0
-11 12 0
-11 -17 0
12 13 15 0
-12 -13 0
-12 -15 0
13 14 364 0
13 364 365 0
-13 -364 0
-13 -14 -365 0
14 -366 -367 0
-14 366 0
-14 367 0
15 -16 -364 0
-15 364 0
-15 16 0
16 -365 -366 0
16 -365 -368 0
16 -365 -367 0
-16 365 0
-16 366 367 368 0
17 -18 364 0
17 18 -364 0
-17 -18 -364 0
-17 18 364 0
18 366 -367 0
18 365 366 0
18 366 -368 0
18 -365 -366 367 0
-18 365 -366 0
-18 -366 -367 0
-18 -365 366 367 368 0
19 306 -340 0
19 -20 340 0
-19 -306 -340 0
-19 20 340 0
20 -306 -348 0
20 306 348 0
-20 306 -348 0
-20 -306 348 0
21 22 -60 0
21 22 26 28 0
-21 -22 0
-21 -26 60 0
-21 -28 60 0
22 -23 -24 0
-22 23 0
-22 24 0
7 -9 23 0
-7 -23 0
9 -23 0
-18 24 -25 0
18 -24 0
-24 25 0
14 25 364 -365 0
25 364 365 -366 0
-25 -364 0
-14 -25 -365 0
-25 365 366 0
-7 9 26 -27 0
7 -26 0
-9 -26 0
-26 27 0
18 -25 27 0
-18 -27 0
25 -27 0
28 29 -31 0
28 -29 57 0
-28 -29 -57 0
-28 29 31 0
-11 29 -30 0
11 -29 0
-29 30 0
7 9 30 0
-7 -30 0
-9 -30 0
31 -32 51 0
31 32 33 42 0
-31 32 -33 0
-31 -32 -51 0
-31 32 -42 0
-23 32 364 365 366 0
23 -32 0
-32 -366 0
-32 -364 0
-32 -365 0
33 34 -37 0
33 34 -36 -40 0
-33 -34 0
-33 37 40 0
-33 36 37 0
-30 34 -35 0
30 -34 0
-34 35 0
14 -15 35 0
-14 -35 0
15 -35 0
-12 -17 -23 36 0
12 -36 0
17 -36 0
23 -36 0
36 37 -38 -306 0
20 36 37 38 0
-36 -37 0
-20 -37 38 0
-37 -38 306 0
38 -39 -356 0
-38 356 0
-38 39 0
-6 -24 39 0
6 -39 0
24 -39 0
40 -41 -306 0
20 40 41 0
-20 -40 41 0
-40 -41 306 0
41 356 -357 0
-41 -356 0
-41 357 0
20 42 -48 0
42 -43 -48 339 0
-42 48 0
-20 -42 43 0
-20 -42 -339 0
43 44 -46 0
-43 -44 0
-43 46 0
44 -45 333 -334 0
-44 45 0
-44 334 0
-44 -333 0
45 354 -355 0
-45 -354 0
-45 355 0
46 47 -338 -348 0
-46 338 0
-46 348 0
-46 -47 0
47 -333 -354 0
47 333 334 354 355 0
-47 333 -334 0
-47 -333 354 0
-47 354 -355 0
-47 333 -354 0
-34 48 -306 0
-34 46 48 0
-34 48 -49 0
34 -48 0
-46 -48 49 306 0
44 49 -50 0
-44 -49 0
-49 50 0
-46 50 -339 0
-50 339 0
46 -50 0
20 51 -306 0
51 -52 55 0
20 51 55 0
51 -52 -306 0
-20 -51 52 0
-51 -55 306 0
52 53 -371 372 -373 0
-52 373 0
-52 -53 0
-52 371 0
-52 -372 0
53 342 -343 0
53 -342 354 0
53 54 342 0
-53 -342 -354 0
-53 -54 342 343 0
54 354 355 0
-54 -354 0
-54 -355 0
55 56 -371 372 -373 0
-55 373 0
-55 -56 0
-55 371 0
-55 -372 0
56 -342 354 0
56 342 -343 355 0
56 342 -354 0
56 343 354 -355 0
-56 -342 -354 0
-56 342 -343 354 -355 0
-56 342 343 354 355 0
20 57 -306 0
57 -58 59 0
20 57 59 0
57 -58 -306 0
-20 -57 58 0
-57 -59 306 0
53 58 371 372 -373 0
-58 -371 0
-53 -58 0
-58 373 0
-58 -372 0
56 59 371 372 -373 0
-59 -371 0
-56 -59 0
-59 373 0
-59 -372 0
20 -26 60 61 0
-26 60 61 -75 0
26 -60 0
-60 -61 0
-20 -60 75 0
61 -62 -73 0
61 -62 65 349 0
-61 62 0
-61 73 -349 0
-61 -65 73 0
62 -63 371 -372 373 0
-62 372 0
-62 -373 0
-62 -371 0
-62 63 0
47 63 64 0
-47 -63 0
-63 -64 0
64 -335 354 0
64 335 -336 355 0
64 335 -354 0
64 336 354 -355 0
-64 -335 -354 0
-64 335 -336 354 -355 0
-64 335 336 354 355 0
20 65 306 0
65 -66 70 0
20 65 70 0
65 -66 306 0
-65 -70 -306 0
-20 -65 66 0
66 -67 68 0
-66 67 0
-66 -68 0
67 349 -351 0
-67 -349 0
-67 351 0
68 69 337 0
-68 -337 0
-68 -69 0
69 -333 352 0
69 333 -334 353 0
69 333 -352 0
69 334 352 -353 0
-69 -333 -352 0
-69 333 -334 352 -353 0
-69 333 334 352 353 0
70 71 -351 0
-70 351 0
-70 -71 0
71 -72 337 0
-71 -337 0
-71 72 0
72 -333 -352 0
72 333 334 352 353 0
-72 333 -334 0
-72 -333 352 0
-72 352 -353 0
-72 333 -352 0
73 74 -349 350 0
-20 73 -349 -350 0
-73 349 0
20 -73 -350 0
-73 -74 350 0
20 74 306 0
-69 -72 74 0
-69 74 306 0
20 -72 74 0
72 -74 -306 0
-20 69 -74 0
75 -76 371 -372 373 0
-75 372 0
-75 -373 0
-75 -371 0
-75 76 0
44 47 76 -77 0
-76 77 0
-47 -76 0
-44 -76 0
77 -335 -354 0
77 335 336 354 355 0
-77 335 -336 0
-77 -335 354 0
-77 354 -355 0
-77 335 -354 0
20 -22 78 79 0
-22 78 79 -83 0
22 -78 0
-78 -79 0
-20 -78 83 0
-20 79 80 -81 0
74 79 -80 -81 0
-79 81 0
-74 -79 -80 0
20 -79 80 0
80 -349 350 0
-80 349 0
-80 -350 0
-63 81 -82 0
63 -81 0
-81 82 0
82 341 -371 372 373 0
-82 371 0
-82 -373 0
-82 -341 0
-82 -372 0
-76 -82 83 0
76 -83 0
82 -83 0
84 -85 95 0
84 -90 95 0
22 84 95 0
-84 -95 0
-22 -84 85 90 0
85 88 309 0
85 -86 89 0
85 -86 309 0
85 88 89 0
-85 -89 -309 0
-85 86 -88 0
-83 86 -87 0
83 -86 0
-86 87 0
87 348 349 0
-87 -348 0
-87 -349 0
88 -309 -351 0
88 309 351 0
-88 309 -351 0
-88 -309 351 0
-81 -87 89 0
81 -89 0
87 -89 0
-86 90 92 0
90 91 92 0
-90 -92 0
86 -90 -91 0
91 -318 -360 0
91 318 360 0
-91 318 -360 0
-91 -318 360 0
-89 92 -93 -318 0
-89 -91 92 93 0
89 -92 0
-92 -93 318 0
91 -92 93 0
-67 93 -94 0
-93 94 0
67 -93 0
94 333 334 0
-94 -333 0
-94 -334 0
22 -26 95 -125 0
22 26 95 -96 0
-22 -95 0
-26 -95 125 0
26 -95 96 0
96 -99 -114 0
-34 96 97 -114 0
-96 114 0
-96 -97 99 0
34 -96 99 0
97 98 333 0
46 97 98 0
-46 97 -319 -333 0
-97 -98 333 0
46 -97 -98 0
-46 -97 319 -333 0
98 -319 -361 0
98 319 361 0
-98 319 -361 0
-98 -319 361 0
99 103 -105 0
99 -100 101 -105 0
-99 105 0
-99 -101 -103 0
-99 100 -103 0
100 -320 -362 0
100 320 362 0
-100 320 -362 0
-100 -320 362 0
-94 101 -102 0
94 -101 0
-101 102 0
-6 -35 102 -341 -359 0
35 -102 0
-102 341 0
6 -102 0
-102 359 0
39 103 104 0
39 102 103 0
-39 -103 0
-102 -103 -104 0
-94 104 320 0
-104 -320 0
94 -104 0
105 107 -108 0
-98 105 106 -108 0
-105 108 0
-105 -106 -107 0
98 -105 -107 0
-102 106 -333 0
-106 333 0
102 -106 0
39 102 107 0
39 107 333 0
39 107 -319 0
-39 -107 0
-102 -107 319 -333 0
34 39 108 0
34 108 109 112 0
-34 -108 0
-39 -108 -109 0
-39 -108 -112 0
109 -110 -356 0
100 109 356 0
-100 -109 356 0
-109 110 -356 0
110 -111 320 0
110 111 -320 360 0
110 320 -360 0
-110 -320 -360 0
-110 -111 -320 0
-110 111 320 360 0
111 346 347 0
-111 -346 0
-111 -347 0
112 -113 -356 0
98 112 356 0
-98 -112 356 0
-112 113 -356 0
113 319 -358 0
113 -319 346 358 0
113 319 -346 0
-113 -319 -346 0
-113 -319 -358 0
-113 319 346 358 0
114 -117 -118 0
-39 114 -115 -118 0
-114 118 0
39 -114 117 0
-114 115 117 0
-91 115 116 0
115 -116 -318 0
91 -115 116 0
-115 -116 318 0
-111 116 -356 0
-116 356 0
111 -116 0
39 -101 117 318 0
39 -91 101 117 0
-39 -117 0
-101 -117 -318 0
91 101 -117 0
34 118 119 123 0
118 119 122 123 0
-118 -123 0
-118 -119 0
-34 -118 -122 0
32 88 119 120 0
32 119 -120 -309 0
-32 -119 0
-119 -120 309 0
-88 -119 120 0
120 -121 -345 0
-120 345 0
-120 121 0
-23 -27 121 0
23 -121 0
27 -121 0
94 100 122 0
46 100 122 0
-46 -94 122 -320 0
94 -100 -122 0
46 -100 -122 0
-46 -94 -122 320 0
-32 123 124 -309 0
-32 55 123 124 0
32 -123 0
-123 -124 0
-55 -123 309 0
52 -88 124 0
-52 -124 0
88 -124 0
125 -127 -134 0
-100 125 126 -134 0
-125 134 0
-125 -126 127 0
100 -125 127 0
-75 -87 126 0
75 -126 0
87 -126 0
127 -132 320 0
127 -128 -129 -132 0
-127 132 0
-127 128 -320 0
-127 129 -320 0
-67 71 128 0
67 -128 0
-71 -128 0
54 94 129 -131 0
54 94 129 -130 0
-54 -129 0
-94 -129 0
-129 130 131 0
130 352 353 0
-130 -352 0
-130 -353 0
131 -359 -360 0
-131 359 0
-131 360 0
66 132 -133 0
129 132 -133 0
132 -133 -320 0
-132 133 0
-66 -129 -132 320 0
-62 -87 133 0
62 -133 0
87 -133 0
134 -135 -139 0
-98 126 134 -139 0
-134 139 0
-126 -134 135 0
98 -134 135 0
135 -138 319 0
-128 135 -136 -138 0
-135 138 0
128 -135 -319 0
-135 136 -319 0
136 -137 333 354 0
136 333 -352 354 0
-136 -333 0
-136 -354 0
-136 137 352 0
137 -358 -359 0
-137 358 0
-137 359 0
-133 138 -319 0
66 -133 138 0
-133 136 138 0
133 -138 0
-66 -136 -138 319 0
139 140 -141 0
-133 139 140 -309 0
-139 -140 0
133 -139 141 0
-139 141 309 0
91 140 -318 0
-126 133 140 0
91 133 140 0
-126 140 -318 0
-91 126 -140 0
-133 -140 318 0
-88 126 141 0
88 -141 0
-126 -141 0
142 143 192 203 -214 0
-142 214 0
-142 -203 0
-142 -143 0
-142 -192 0
143 171 183 0
143 -144 183 0
143 -161 183 0
-143 -183 0
-143 144 161 -171 0
144 145 151 0
144 145 157 0
144 145 -153 0
-144 -145 0
-144 -151 153 -157 0
-22 145 146 0
22 -145 0
-145 -146 0
-83 146 149 0
146 147 148 0
146 147 149 0
83 -146 -147 0
-146 -148 -149 0
-146 -147 -149 0
147 -321 -363 0
147 321 363 0
-147 321 -363 0
-147 -321 363 0
148 348 -349 350 0
-148 -348 0
-148 349 0
-148 -350 0
-81 149 -348 0
80 -81 149 0
-81 149 150 0
81 -149 0
-80 -149 -150 348 0
-69 -72 150 0
147 150 -321 0
-69 150 -321 0
-72 147 150 0
69 -147 -150 0
72 -150 321 0
22 38 151 -152 0
22 -38 151 -317 0
-22 -151 0
38 -151 152 0
-38 -151 317 0
152 -317 -359 0
152 317 359 0
-152 317 -359 0
-152 -317 359 0
147 153 154 0
153 -155 -156 0
153 154 -156 0
147 153 -155 0
-153 -154 155 0
-147 -153 156 0
-34 49 154 0
34 -154 0
-49 -154 0
46 147 155 0
147 155 -321 0
44 -46 155 -321 0
46 -147 -155 0
-46 -155 321 0
-44 -147 -155 0
-34 50 156 0
34 -156 0
-50 -156 0
157 -159 160 0
157 -158 159 0
-157 -159 -160 0
-157 158 159 0
158 -310 -352 0
158 310 -311 352 -353 0
158 310 311 352 353 0
-158 -310 352 0
-158 310 -311 353 0
-158 310 -352 0
-158 311 352 -353 0
-36 159 -349 356 -357 0
36 -159 0
-159 349 0
-159 357 0
-159 -356 0
160 -310 346 0
160 310 -311 347 0
160 310 -346 0
160 311 346 -347 0
-160 -310 -346 0
-160 310 -311 346 -347 0
-160 310 311 346 347 0
-29 161 -162 0
29 161 -169 0
29 161 -164 0
-29 -161 162 0
29 -161 164 169 0
-58 162 308 0
59 162 163 0
-58 59 162 0
162 163 308 0
58 -162 -163 0
-59 -162 -308 0
163 -308 -350 0
163 308 350 0
-163 308 -350 0
-163 -308 350 0
32 -156 164 165 0
32 163 164 165 0
-32 -164 0
-164 -165 0
156 -163 -164 0
-154 165 -166 0
-46 -154 165 -167 0
154 -165 0
-165 166 167 0
46 -165 166 0
43 -163 166 0
-43 -166 0
163 -166 0
167 -168 -308 0
167 168 308 0
-167 -168 308 0
-167 168 -308 0
168 -349 -350 0
-168 349 0
-168 350 0
-32 169 170 308 0
-32 55 169 170 0
32 -169 0
-169 -170 0
-55 -169 -308 0
52 -163 170 0
-52 -170 0
163 -170 0
-29 171 -175 0
171 -172 -175 0
171 -174 -175 0
-171 175 0
29 -171 172 174 0
38 121 172 -173 0
-38 121 172 307 0
-121 -172 0
38 -172 173 0
-38 -172 -307 0
173 -307 -349 0
173 307 349 0
-173 307 -349 0
-173 -307 349 0
-121 174 307 -345 0
-121 -173 174 345 0
121 -174 0
173 -174 345 0
-174 -307 -345 0
26 29 175 177 0
26 175 176 177 0
-26 -175 0
-175 -177 0
-29 -175 -176 0
-58 59 176 0
173 176 -307 0
-58 176 -307 0
59 173 176 0
58 -173 -176 0
-59 -176 307 0
177 178 179 0
34 177 178 0
-34 -49 177 179 0
-34 -177 -179 0
34 -177 -178 0
49 -177 -178 0
178 -327 -369 0
178 327 -328 369 -370 0
178 327 328 369 370 0
-178 -327 369 0
-178 327 -328 370 0
-178 327 -369 0
-178 328 369 -370 0
-50 179 -180 0
50 -179 0
-179 180 0
180 -182 327 0
180 -181 -327 0
180 327 -328 0
-180 181 -327 0
-180 182 327 328 0
181 333 -361 0
-181 -333 0
-181 361 0
94 182 -362 0
-182 362 0
-94 -182 0
-145 183 -190 0
22 183 184 -190 0
-183 190 0
-22 145 -183 0
145 -183 -184 0
62 184 185 0
184 185 186 188 0
-184 -185 0
-62 -184 -188 0
-62 -184 -186 0
75 -147 185 0
-63 -147 185 -348 0
147 -185 0
63 -75 -185 0
-75 -185 348 0
186 -187 349 0
66 -147 186 349 0
-186 -349 0
-66 -186 187 0
147 -186 187 0
-70 187 -321 348 0
-187 321 0
-187 -348 0
70 -187 0
188 -189 -349 350 0
-147 188 -349 -350 0
-188 349 0
147 -188 -350 0
-188 189 350 0
150 189 348 0
-189 -348 0
-150 -189 0
-26 190 -191 0
-26 -133 190 308 0
26 -190 0
-190 191 -308 0
133 -190 191 0
126 -163 191 0
-126 -191 0
163 -191 0
-22 192 -193 0
22 192 -201 0
22 192 -197 0
-22 -192 193 0
22 -192 197 201 0
-86 193 195 0
193 194 195 0
-193 -195 0
86 -193 -194 0
194 -316 -358 0
194 316 358 0
-194 316 -358 0
-194 -316 358 0
-89 195 -196 -316 0
-89 -194 195 196 0
89 -195 0
-195 -196 316 0
194 -195 196 0
196 -333 349 -351 0
-196 333 0
-196 -349 0
-196 351 0
26 197 -200 0
26 -39 197 -198 0
-26 -197 0
39 -197 200 0
-197 198 200 0
194 198 199 0
198 -199 316 0
-194 -198 199 0
-198 -199 -316 0
199 -346 -356 0
-199 346 0
-199 356 0
39 -106 200 -316 0
39 106 194 200 0
-39 -200 0
106 -194 -200 0
-106 -200 316 0
-26 201 202 -316 0
-26 133 201 202 0
26 -201 0
-201 -202 0
-133 -201 316 0
126 -194 202 0
-126 -202 0
194 -202 0
-22 203 209 0
-22 203 204 207 0
22 -203 0
-203 -204 -209 0
-203 -207 -209 0
-158 204 -205 0
86 -100 -158 204 0
158 -204 0
-86 -204 205 0
100 -204 205 0
-89 205 -206 0
89 -205 0
-205 206 0
-67 206 -320 -360 0
-67 -94 206 -320 0
-67 94 206 320 360 0
-94 -206 320 0
94 -206 -320 360 0
67 -206 0
-206 320 -360 0
67 -89 -100 207 208 0
-67 -207 0
-207 -208 0
100 -207 0
89 -207 0
208 -310 333 0
208 310 -311 334 0
208 310 -333 0
208 311 333 -334 0
-208 -310 -333 0
-208 310 -311 333 -334 0
-208 310 311 333 334 0
209 -210 212 0
86 -98 209 212 0
-209 -212 0
-86 -209 210 0
98 -209 210 0
-67 -89 210 -211 0
67 -89 -98 210 0
89 -210 0
-67 -210 211 0
67 98 -210 0
211 -319 -333 0
211 -319 -358 0
211 319 333 358 0
-211 319 -358 0
-211 -319 333 358 0
-211 319 -333 0
67 212 213 0
89 212 213 0
212 213 317 0
-212 -213 0
-67 -89 -212 -317 0
86 -152 213 0
-81 -152 213 351 0
152 -213 0
-86 -213 -351 0
81 -86 -213 0
26 214 225 -228 0
214 -215 225 -228 0
-214 228 0
-214 -225 0
-26 -214 215 0
215 216 224 0
126 -152 215 216 0
-215 -216 0
-126 -215 -224 0
152 -215 -224 0
216 217 -218 0
128 216 217 0
133 216 217 0
-216 -217 0
-128 -133 -216 218 0
126 -178 217 0
-62 66 -178 217 0
178 -217 0
-66 -126 -217 0
62 -126 -217 0
-69 218 222 0
218 219 222 -337 0
-218 -222 0
69 -218 -219 0
69 -218 337 0
219 -221 327 0
219 -220 -327 0
219 327 -328 0
-219 220 -327 0
-219 221 327 328 0
220 333 -358 0
-220 -333 0
-220 358 0
94 221 -360 0
-221 360 0
-94 -221 0
72 222 223 0
-72 -222 0
-222 -223 0
223 -327 352 0
223 327 -328 353 0
223 327 -352 0
223 328 352 -353 0
-223 -327 -352 0
-223 327 -328 352 -353 0
-223 327 328 352 353 0
22 133 224 0
22 224 -317 0
-22 -224 0
-133 -224 317 0
36 38 225 -227 0
36 -38 225 226 0
-36 -225 0
-38 -225 -226 0
38 -225 227 0
226 314 315 0
-226 -314 0
-226 -315 0
227 -314 356 0
227 314 -315 357 0
227 314 -356 0
227 315 356 -357 0
-227 -314 -356 0
-227 314 -315 356 -357 0
-227 314 315 356 357 0
228 229 -230 0
-133 208 228 -230 0
-228 230 0
-208 -228 -229 0
133 -228 -229 0
-26 -126 229 0
-26 158 229 0
26 -229 0
126 -158 -229 0
230 231 -232 0
-133 230 -232 -307 0
-230 232 0
133 -230 -231 0
-230 -231 307 0
-26 -126 231 0
-26 173 231 0
26 -231 0
126 -173 -231 0
232 233 -234 240 -241 0
-232 234 0
-232 -240 0
-232 -233 0
-232 241 0
-36 233 314 -315 0
-36 233 -314 356 0
-36 233 314 -356 0
36 -233 0
-233 -314 -356 0
-233 314 315 356 0
234 -235 -236 -238 0
234 236 -237 -238 0
-234 238 0
-234 235 -236 0
-234 236 237 0
235 346 -347 0
-235 -346 0
-235 347 0
236 304 -305 0
-236 -304 0
-236 305 0
237 -304 -346 0
237 304 346 347 0
-237 304 -346 0
-237 -304 346 0
-237 346 -347 0
238 -239 -375 -376 0
45 238 -375 -376 0
-238 375 0
-238 376 0
-45 -238 239 0
239 312 -313 0
-239 -312 0
-239 313 0
240 312 -354 0
240 -312 354 355 0
240 312 -313 355 0
-240 354 -355 0
-240 -312 -354 0
-240 312 313 354 0
241 242 -337 0
220 221 241 242 0
-241 -242 0
-220 -241 337 0
-221 -241 337 0
-182 242 339 0
242 333 339 -361 0
-242 -339 0
182 -242 -333 0
182 -242 361 0
243 244 -245 -247 0
-239 243 -245 -247 0
-243 247 0
-243 245 0
239 -243 -244 0
244 310 -311 0
-244 -310 0
-244 311 0
245 -246 320 321 376 0
-245 246 0
-245 -376 0
-245 -320 0
-245 -321 0
246 316 317 318 319 0
-246 -319 0
-246 -318 0
-246 -316 0
-246 -317 0
247 248 -249 314 315 0
-247 249 0
-247 -248 0
-247 -314 0
-247 -315 0
248 -310 312 0
248 310 311 -312 0
248 311 312 -313 0
-248 310 -311 0
-248 -310 -312 0
-248 310 312 313 0
249 306 307 308 309 0
-249 -309 0
-249 -308 0
-249 -306 0
-249 -307 0
250 -251 -252 325 367 0
250 -251 -252 -325 -367 0
-250 252 0
-250 -325 367 0
-250 251 0
-250 325 -367 0
251 -301 330 -343 372 0
251 301 -330 343 -372 0
251 301 330 343 372 0
251 -301 -330 -343 -372 0
-251 -301 343 0
-251 301 -343 0
-251 330 -372 0
-251 -330 372 0
252 -253 -254 -255 -256 0
-252 256 0
-252 253 0
-252 255 0
-252 254 0
253 -304 -346 0
253 304 346 0
-253 304 -346 0
-253 -304 346 0
254 -312 -354 0
254 312 354 0
-254 312 -354 0
-254 -312 354 0
255 -297 303 -339 345 0
255 297 -303 339 -345 0
255 297 303 339 345 0
255 -297 -303 -339 -345 0
-255 -297 339 0
-255 297 -339 0
-255 303 -345 0
-255 -303 345 0
-147 -163 256 -257 -258 0
-256 258 0
147 -256 0
-256 257 0
163 -256 0
257 -328 -370 0
257 328 370 0
-257 328 -370 0
-257 -328 370 0
258 -327 -369 0
258 327 369 0
-258 327 -369 0
-258 -327 369 0
259 -260 -271 -272 -274 0
-259 274 0
-259 260 0
-259 272 0
-259 271 0
-98 260 -261 -262 -264 0
-260 264 0
98 -260 0
-260 262 0
-260 261 0
261 -311 -353 0
261 311 353 0
-261 311 -353 0
-261 -311 353 0
262 -263 -324 -376 0
262 -263 366 -376 0
-262 263 0
-262 376 0
-262 324 -366 0
263 -300 333 0
263 -291 342 0
263 -291 -300 0
263 333 342 0
-263 300 -342 0
-263 291 -333 0
264 -265 -268 0
-264 265 0
-264 268 0
265 266 267 296 338 0
265 266 267 -296 -338 0
-265 -266 0
-265 -296 338 0
-265 -267 0
-265 296 -338 0
266 295 -337 0
-266 -295 0
-266 337 0
267 -294 336 0
-267 294 0
-267 -336 0
268 269 270 298 340 0
268 269 270 -298 -340 0
-268 -269 0
-268 -298 340 0
-268 -270 0
-268 298 -340 0
269 294 -336 0
-269 -294 0
-269 336 0
270 -295 337 0
-270 295 0
-270 -337 0
-20 -88 -91 -194 271 0
194 -271 0
20 -271 0
91 -271 0
88 -271 0
-100 -152 -173 272 -273 0
173 -272 0
100 -272 0
-272 273 0
152 -272 0
273 -310 -352 0
273 310 352 0
-273 310 -352 0
-273 -310 352 0
274 -275 -276 -281 -282 0
-274 282 0
-274 275 0
-274 281 0
-274 276 0
275 -314 315 -356 357 0
275 314 -315 356 -357 0
275 314 315 356 357 0
275 -314 -315 -356 -357 0
-275 -314 356 0
-275 314 -356 0
-275 315 -357 0
-275 -315 357 0
276 -277 -280 331 373 0
276 -277 -280 -331 -373 0
-276 280 0
-276 -331 373 0
-276 277 0
-276 331 -373 0
277 278 -279 324 0
277 278 -279 -366 0
-277 279 0
-277 -278 0
-277 -324 366 0
278 -302 344 0
-278 302 0
-278 -344 0
279 292 305 0
279 -334 -347 0
279 292 -347 0
279 305 -334 0
-279 -292 334 0
-279 -305 347 0
280 -322 344 0
280 -302 364 0
280 -302 -322 0
280 344 364 0
-280 322 -364 0
-280 302 -344 0
281 -305 326 368 0
281 -326 347 -368 0
281 -305 -326 -368 0
281 326 347 368 0
-281 326 -368 0
-281 -326 368 0
-281 305 -347 0
282 -283 -286 -287 -288 0
-282 288 0
-282 283 0
-282 287 0
-282 286 0
283 284 -285 291 0
283 284 -285 -333 0
-283 285 0
-283 -284 0
-283 -291 333 0
284 292 -334 0
-284 -292 0
-284 334 0
285 -329 -364 0
285 322 371 0
285 322 -329 0
285 -364 371 0
-285 -322 364 0
-285 329 -371 0
286 -313 323 -355 365 0
286 313 -323 355 -365 0
286 313 323 355 365 0
286 -313 -323 -355 -365 0
-286 -313 355 0
-286 313 -355 0
-286 323 -365 0
-286 -323 365 0
287 -299 332 -341 374 0
287 299 -332 341 -374 0
287 299 332 341 374 0
287 -299 -332 -341 -374 0
-287 -299 341 0
-287 299 -341 0
-287 332 -374 0
-287 -332 374 0
288 289 290 293 335 0
288 289 290 -293 -335 0
-288 -289 0
-288 -293 335 0
-288 -290 0
-288 293 -335 0
289 -329 371 0
-289 329 0
-289 -371 0
290 -300 342 0
-290 300 0
-290 -342 0
1 2 0
-1 -2 0
421 0

